#######################



#######################
Set parameter TimeLimit to value 500
Set parameter SoftMemLimit to value 125
Set parameter MIPFocus to value 3
Set parameter LogFile to value 1003-MIPFocus3-Presolve2-TimeLimit500-k16x240-1.log
Set parameter Presolve to value 2
Set parameter Seed to value 11
Using license file /opt/gurobi/gurobi.lic

Gurobi Optimizer version 10.0.3 build v10.0.3rc0 (linux64)
Copyright (c) 2023, Gurobi Optimization, LLC

Read MPS format model from file /miplib2010/k16x240.mps.bz2
Reading time = 0.00 seconds
k16x240: 256 rows, 480 columns, 960 nonzeros

CPU model: Intel(R) Xeon(R) E-2388G CPU @ 3.20GHz, instruction set [SSE2|AVX|AVX2|AVX512]
Thread count: 8 physical cores, 16 logical processors, using up to 16 threads

Optimize a model with 256 rows, 480 columns and 960 nonzeros
Model fingerprint: 0x4e80885f
Variable types: 240 continuous, 240 integer (240 binary)
Coefficient statistics:
  Matrix range     [1e+00, 1e+03]
  Objective range  [1e+00, 1e+03]
  Bounds range     [1e+00, 1e+03]
  RHS range        [4e+00, 4e+02]
Found heuristic solution: objective 24175.000000
Presolve time: 0.00s
Presolved: 256 rows, 480 columns, 960 nonzeros
Variable types: 240 continuous, 240 integer (240 binary)
Root relaxation presolve removed 241 rows and 240 columns
Root relaxation presolved: 15 rows, 240 columns, 450 nonzeros


Root relaxation: objective 2.769838e+03, 16 iterations, 0.00 seconds (0.00 work units)

    Nodes    |    Current Node    |     Objective Bounds      |     Work
 Expl Unexpl |  Obj  Depth IntInf | Incumbent    BestBd   Gap | It/Node Time

     0     0 2769.83800    0   14 24175.0000 2769.83800  88.5%     -    0s
H    0     0                    11359.000000 2769.83800  75.6%     -    0s
H    0     0                    11226.000000 2769.83800  75.3%     -    0s
H    0     0                    11079.000000 8116.87580  26.7%     -    0s
H    0     0                    11010.000000 8116.87580  26.3%     -    0s
     0     0 8116.87580    0   26 11010.0000 8116.87580  26.3%     -    0s
H    0     0                    10913.000000 8116.87580  25.6%     -    0s
H    0     0                    10884.000000 8116.87580  25.4%     -    0s
     0     0 8748.93137    0   23 10884.0000 8748.93137  19.6%     -    0s
H    0     0                    10880.000000 8748.93137  19.6%     -    0s
     0     0 8804.57208    0   14 10880.0000 8804.57208  19.1%     -    0s
     0     0 8804.57208    0   20 10880.0000 8804.57208  19.1%     -    0s
     0     0 8805.41752    0   33 10880.0000 8805.41752  19.1%     -    0s
     0     0 8807.56494    0   31 10880.0000 8807.56494  19.0%     -    0s
     0     0 8809.09049    0   27 10880.0000 8809.09049  19.0%     -    0s
     0     0 9000.92641    0   34 10880.0000 9000.92641  17.3%     -    0s
H    0     0                    10853.000000 9000.92641  17.1%     -    0s
     0     0 9039.03558    0   35 10853.0000 9039.03558  16.7%     -    0s
     0     0 9039.03558    0   37 10853.0000 9039.03558  16.7%     -    0s
     0     0 9136.64350    0   42 10853.0000 9136.64350  15.8%     -    0s
     0     0 9136.64350    0   42 10853.0000 9136.64350  15.8%     -    0s
H    0     0                    10779.000000 9142.55622  15.2%     -    0s
     0     2 9142.55622    0   42 10779.0000 9142.55622  15.2%     -    0s
H  125   132                    10756.000000 9520.24360  11.5%  57.6    0s
H  127   132                    10674.000000 9524.68862  10.8%  57.9    0s
  3705  2827 10358.7647   21   26 10674.0000 10243.6355  4.03%  75.8    5s
 15306  8571 10469.5364   39    3 10674.0000 10467.8951  1.93%  57.9   10s
 41602  6645     cutoff   28      10674.0000 10626.1621  0.45%  39.3   15s

Cutting planes:
  Lift-and-project: 5
  Implied bound: 7
  MIR: 139
  Flow cover: 503
  Flow path: 34
  Zero half: 35
  Network: 17
  Relax-and-lift: 2

Explored 51872 nodes (1753072 simplex iterations) in 16.14 seconds (29.54 work units)
Thread count was 16 (of 16 available processors)

Solution count 10: 10674 10756 10779 ... 11226

Optimal solution found (tolerance 1.00e-04)
Best objective 1.067400000000e+04, best bound 1.067306210341e+04, gap 0.0088%
